c 
c U(n,d) graph
c graph gen seed     : 2781
c number of vertices : 70
c max number of edges: 2415
c Euclidean distance : 0.400000
c data structure     : sparse
c
c           Graph Stats
c number of vertices  : 70
c nonisolated vertices: 70
c number of edges     : 832
c edge density        : 0.344513
c max degree          : 38
c avg degree          : 23.77
c min degree          : 8
p col 70 832
e 1 70
e 1 65
e 1 63
e 1 62
e 1 61
e 1 55
e 1 53
e 1 51
e 1 50
e 1 47
e 1 44
e 1 43
e 1 42
e 1 41
e 1 40
e 1 39
e 1 35
e 1 34
e 1 33
e 1 32
e 1 31
e 1 29
e 1 27
e 1 25
e 1 24
e 1 23
e 1 21
e 1 20
e 1 19
e 1 17
e 1 16
e 1 13
e 1 9
e 1 7
e 1 2
e 2 70
e 2 69
e 2 65
e 2 63
e 2 62
e 2 61
e 2 55
e 2 53
e 2 51
e 2 50
e 2 47
e 2 44
e 2 43
e 2 42
e 2 41
e 2 40
e 2 35
e 2 34
e 2 33
e 2 31
e 2 29
e 2 27
e 2 25
e 2 24
e 2 23
e 2 21
e 2 20
e 2 19
e 2 17
e 2 16
e 2 13
e 2 9
e 2 7
e 3 67
e 3 65
e 3 62
e 3 60
e 3 59
e 3 58
e 3 57
e 3 56
e 3 55
e 3 54
e 3 52
e 3 45
e 3 42
e 3 37
e 3 36
e 3 34
e 3 33
e 3 32
e 3 25
e 3 23
e 3 22
e 3 21
e 3 9
e 4 66
e 4 64
e 4 49
e 4 38
e 4 30
e 4 28
e 4 26
e 4 10
e 5 70
e 5 68
e 5 61
e 5 53
e 5 48
e 5 46
e 5 43
e 5 40
e 5 35
e 5 18
e 5 17
e 5 15
e 5 14
e 5 12
e 5 11
e 5 8
e 5 6
e 6 70
e 6 68
e 6 61
e 6 53
e 6 48
e 6 46
e 6 43
e 6 40
e 6 39
e 6 38
e 6 35
e 6 18
e 6 17
e 6 15
e 6 14
e 6 12
e 6 11
e 6 8
e 7 70
e 7 63
e 7 61
e 7 55
e 7 53
e 7 51
e 7 50
e 7 47
e 7 43
e 7 41
e 7 40
e 7 35
e 7 31
e 7 29
e 7 24
e 7 20
e 7 19
e 7 17
e 7 16
e 7 14
e 7 13
e 8 70
e 8 68
e 8 61
e 8 53
e 8 49
e 8 48
e 8 46
e 8 44
e 8 43
e 8 40
e 8 39
e 8 38
e 8 28
e 8 18
e 8 15
e 8 14
e 8 13
e 8 12
e 8 11
e 9 65
e 9 63
e 9 62
e 9 59
e 9 57
e 9 56
e 9 55
e 9 52
e 9 51
e 9 45
e 9 42
e 9 41
e 9 34
e 9 33
e 9 31
e 9 29
e 9 25
e 9 24
e 9 23
e 9 22
e 9 21
e 9 20
e 9 19
e 9 16
e 10 66
e 10 64
e 10 49
e 10 39
e 10 38
e 10 30
e 10 28
e 10 26
e 11 70
e 11 68
e 11 61
e 11 53
e 11 48
e 11 46
e 11 43
e 11 40
e 11 35
e 11 18
e 11 17
e 11 15
e 11 14
e 11 12
e 12 49
e 12 48
e 12 46
e 12 43
e 12 40
e 12 39
e 12 38
e 12 18
e 12 15
e 12 14
e 13 70
e 13 63
e 13 62
e 13 61
e 13 60
e 13 55
e 13 53
e 13 49
e 13 48
e 13 46
e 13 44
e 13 43
e 13 42
e 13 40
e 13 39
e 13 38
e 13 33
e 13 32
e 13 31
e 13 28
e 13 27
e 13 25
e 13 24
e 13 20
e 13 19
e 13 17
e 13 16
e 14 70
e 14 68
e 14 61
e 14 53
e 14 48
e 14 46
e 14 43
e 14 40
e 14 39
e 14 38
e 14 35
e 14 20
e 14 18
e 14 17
e 14 15
e 15 70
e 15 68
e 15 61
e 15 53
e 15 49
e 15 48
e 15 46
e 15 43
e 15 40
e 15 39
e 15 38
e 15 35
e 15 18
e 15 17
e 16 70
e 16 69
e 16 65
e 16 63
e 16 62
e 16 61
e 16 56
e 16 55
e 16 53
e 16 51
e 16 50
e 16 47
e 16 43
e 16 42
e 16 41
e 16 40
e 16 35
e 16 34
e 16 33
e 16 31
e 16 29
e 16 27
e 16 25
e 16 24
e 16 23
e 16 21
e 16 20
e 16 19
e 16 17
e 17 70
e 17 68
e 17 63
e 17 61
e 17 53
e 17 47
e 17 46
e 17 43
e 17 40
e 17 35
e 17 31
e 17 20
e 17 19
e 18 70
e 18 68
e 18 61
e 18 53
e 18 49
e 18 48
e 18 46
e 18 43
e 18 40
e 18 39
e 18 38
e 19 70
e 19 65
e 19 63
e 19 62
e 19 61
e 19 60
e 19 55
e 19 53
e 19 48
e 19 46
e 19 44
e 19 43
e 19 42
e 19 41
e 19 40
e 19 39
e 19 38
e 19 35
e 19 34
e 19 33
e 19 32
e 19 31
e 19 28
e 19 27
e 19 25
e 19 24
e 19 23
e 19 21
e 19 20
e 20 70
e 20 65
e 20 63
e 20 62
e 20 61
e 20 55
e 20 53
e 20 51
e 20 50
e 20 48
e 20 47
e 20 46
e 20 44
e 20 43
e 20 42
e 20 41
e 20 40
e 20 39
e 20 35
e 20 34
e 20 33
e 20 32
e 20 31
e 20 27
e 20 25
e 20 24
e 20 23
e 20 21
e 21 69
e 21 65
e 21 63
e 21 62
e 21 56
e 21 55
e 21 51
e 21 50
e 21 45
e 21 42
e 21 41
e 21 34
e 21 33
e 21 31
e 21 29
e 21 25
e 21 24
e 21 23
e 21 22
e 22 65
e 22 63
e 22 62
e 22 59
e 22 57
e 22 56
e 22 55
e 22 52
e 22 51
e 22 45
e 22 42
e 22 41
e 22 34
e 22 33
e 22 29
e 22 25
e 22 23
e 23 69
e 23 65
e 23 63
e 23 62
e 23 56
e 23 55
e 23 51
e 23 50
e 23 47
e 23 45
e 23 42
e 23 41
e 23 34
e 23 33
e 23 31
e 23 29
e 23 25
e 23 24
e 24 70
e 24 63
e 24 62
e 24 61
e 24 60
e 24 55
e 24 54
e 24 53
e 24 48
e 24 46
e 24 44
e 24 42
e 24 40
e 24 39
e 24 38
e 24 36
e 24 34
e 24 33
e 24 32
e 24 31
e 24 28
e 24 27
e 24 25
e 25 70
e 25 65
e 25 63
e 25 62
e 25 61
e 25 60
e 25 57
e 25 55
e 25 54
e 25 53
e 25 52
e 25 51
e 25 45
e 25 44
e 25 42
e 25 41
e 25 40
e 25 39
e 25 36
e 25 34
e 25 33
e 25 32
e 25 31
e 25 28
e 25 27
e 26 66
e 26 64
e 26 60
e 26 54
e 26 49
e 26 38
e 26 36
e 26 32
e 26 30
e 26 28
e 27 70
e 27 64
e 27 63
e 27 62
e 27 61
e 27 60
e 27 55
e 27 54
e 27 53
e 27 49
e 27 48
e 27 46
e 27 44
e 27 43
e 27 42
e 27 40
e 27 39
e 27 38
e 27 36
e 27 33
e 27 32
e 27 28
e 28 66
e 28 64
e 28 62
e 28 60
e 28 54
e 28 49
e 28 48
e 28 46
e 28 44
e 28 40
e 28 39
e 28 38
e 28 36
e 28 32
e 28 30
e 29 69
e 29 65
e 29 63
e 29 56
e 29 55
e 29 51
e 29 50
e 29 47
e 29 41
e 29 34
e 29 33
e 29 31
e 30 66
e 30 64
e 30 60
e 30 54
e 30 49
e 30 44
e 30 36
e 30 32
e 31 70
e 31 69
e 31 65
e 31 63
e 31 62
e 31 61
e 31 56
e 31 55
e 31 53
e 31 51
e 31 50
e 31 47
e 31 42
e 31 41
e 31 35
e 31 34
e 31 33
e 32 70
e 32 64
e 32 63
e 32 62
e 32 60
e 32 59
e 32 57
e 32 55
e 32 54
e 32 53
e 32 52
e 32 49
e 32 48
e 32 46
e 32 44
e 32 42
e 32 40
e 32 39
e 32 38
e 32 36
e 32 33
e 33 70
e 33 65
e 33 63
e 33 62
e 33 60
e 33 57
e 33 56
e 33 55
e 33 53
e 33 52
e 33 51
e 33 45
e 33 44
e 33 42
e 33 41
e 33 34
e 34 69
e 34 65
e 34 63
e 34 62
e 34 56
e 34 55
e 34 52
e 34 51
e 34 45
e 34 42
e 34 41
e 35 70
e 35 68
e 35 63
e 35 61
e 35 53
e 35 47
e 35 46
e 35 43
e 35 40
e 36 67
e 36 64
e 36 62
e 36 60
e 36 59
e 36 58
e 36 57
e 36 54
e 36 52
e 36 44
e 36 42
e 36 37
e 37 67
e 37 62
e 37 60
e 37 59
e 37 58
e 37 57
e 37 54
e 37 52
e 37 45
e 38 70
e 38 66
e 38 53
e 38 49
e 38 48
e 38 46
e 38 44
e 38 43
e 38 40
e 38 39
e 39 70
e 39 63
e 39 61
e 39 53
e 39 49
e 39 48
e 39 46
e 39 44
e 39 43
e 39 40
e 40 70
e 40 68
e 40 63
e 40 61
e 40 55
e 40 53
e 40 49
e 40 48
e 40 46
e 40 44
e 40 43
e 41 69
e 41 65
e 41 63
e 41 62
e 41 56
e 41 55
e 41 51
e 41 50
e 41 47
e 41 45
e 41 42
e 42 65
e 42 63
e 42 62
e 42 60
e 42 59
e 42 57
e 42 56
e 42 55
e 42 54
e 42 52
e 42 51
e 42 45
e 42 44
e 43 70
e 43 68
e 43 61
e 43 53
e 43 48
e 43 47
e 43 46
e 43 44
e 44 70
e 44 64
e 44 63
e 44 62
e 44 61
e 44 60
e 44 55
e 44 54
e 44 53
e 44 49
e 44 48
e 44 46
e 45 67
e 45 65
e 45 63
e 45 62
e 45 59
e 45 58
e 45 57
e 45 56
e 45 55
e 45 52
e 45 51
e 46 70
e 46 61
e 46 53
e 46 49
e 46 48
e 47 70
e 47 69
e 47 63
e 47 61
e 47 55
e 47 53
e 47 51
e 47 50
e 48 70
e 48 61
e 48 53
e 48 49
e 49 66
e 49 64
e 50 69
e 50 65
e 50 63
e 50 56
e 50 55
e 50 51
e 51 69
e 51 65
e 51 63
e 51 56
e 51 55
e 52 67
e 52 64
e 52 62
e 52 60
e 52 59
e 52 58
e 52 57
e 52 54
e 53 70
e 53 68
e 53 63
e 53 61
e 53 55
e 54 67
e 54 64
e 54 62
e 54 60
e 54 59
e 54 58
e 54 57
e 55 70
e 55 65
e 55 63
e 55 62
e 55 61
e 55 60
e 55 56
e 56 69
e 56 65
e 56 63
e 56 62
e 57 67
e 57 64
e 57 62
e 57 60
e 57 59
e 57 58
e 58 67
e 58 59
e 59 67
e 59 62
e 59 60
e 60 67
e 60 64
e 60 63
e 60 62
e 61 70
e 61 68
e 61 63
e 62 65
e 62 63
e 63 70
e 63 65
e 64 66
e 65 69
e 68 70
